p cnf 13 49
-1 4 -7 0
3 6 -10 0
-4 9 11 0
5 -6 12 0
3 -5 -6 0
5 7 -11 0
1 -2 8 0
6 9 13 0
2 3 12 0
-4 -5 -8 0
-6 -8 9 0
-2 6 -9 0
-3 -6 -7 0
-1 5 -6 0
6 10 -12 0
7 8 11 0
-4 -10 -13 0
1 3 -12 0
-4 -6 -7 0
-5 6 -11 0
3 -4 11 0
-5 -9 11 0
-2 5 7 0
-6 7 -8 0
2 -3 -7 0
3 -9 -13 0
6 9 -11 0
-3 5 -10 0
1 -9 -11 0
-6 -7 -8 0
9 -10 13 0
3 7 -12 0
2 -9 13 0
-10 -12 -13 0
1 11 -13 0
-1 3 -7 0
-9 -10 12 0
1 -9 10 0
2 -4 13 0
3 5 -11 0
5 -8 11 0
3 5 -12 0
4 -6 -12 0
-3 6 -10 0
-1 -8 -10 0
-4 10 13 0
1 -6 -9 0
4 -5 -13 0
2 -7 -11 0
